solution status: optimal solution found
objective value:                                    2
x60                                                 1 	(obj:1)
x69                                                 1 	(obj:1)
bank.push_ctrl_hole_z                              17 	(obj:0)
bank.thing.devices[0].thingy.vcell_out_y                    2 	(obj:0)
bank.thing.devices[0].thingy.vcell_out_z                   19 	(obj:0)
bank.cells_in_ctrl_hole_y                          -1 	(obj:0)
bank.cells_in_ctrl_hole_z                          18 	(obj:0)
bank.thing.devices[0].thingy.vsieve_y                    6 	(obj:0)
bank.thing.devices[0].thingy.vsieve_z                   19 	(obj:0)
bank.beads_ctrl_hole_y                              5 	(obj:0)
bank.beads_ctrl_hole_z                             21 	(obj:0)
bank.cells_in_flush_hole_y                          1 	(obj:0)
bank.cells_in_flush_hole_z                         17 	(obj:0)
bank.thing.devices[0].thingy.vbead_out_y                    8 	(obj:0)
bank.thing.devices[0].thingy.vbead_out_z                   22 	(obj:0)
bank.beads_flush_hole_y                             4 	(obj:0)
bank.beads_flush_hole_z                            20 	(obj:0)
bank.thing.devices[0].thingy.vpump3_y                    1 	(obj:0)
bank.thing.devices[0].thingy.vpump3_z                   20 	(obj:0)
bank.thing.devices[0].thingy.vpump2_y                    1 	(obj:0)
bank.thing.devices[0].thingy.vpump2_z                   18 	(obj:0)
bank.thing.devices[0].thingy.vpump1_y                    3 	(obj:0)
bank.thing.devices[0].thingy.vpump1_z                   21 	(obj:0)
bank.lysis_in_flush_hole_z                         18 	(obj:0)
bank.push_flush_hole_y                             -1 	(obj:0)
bank.push_flush_hole_z                             17 	(obj:0)
bank.lysis_in_ctrl_hole_z                          19 	(obj:0)
bank.thing.devices[0].thingy.vsep_y                    4 	(obj:0)
bank.thing.devices[0].thingy.vsep_z                   21 	(obj:0)
